c turning on binary mode checking
c parsing input formula with 259840 variables and 1039934 clauses
c finished parsing, read 2869354 bytes from proof file
c detected empty clause; start verification via backward checking
c 1495 of 1039934 clauses in core                            
c 289 of 114376 lemmas in core using 10424 resolution steps
c 0 RAT lemmas in core; 17 redundant literals in core lemmas
s VERIFIED
c verification time: 1.131 seconds
